(set-logic QF_LRA)
(declare-fun X0 () Real )
(declare-fun Y0 () Real )
(declare-fun X1 () Real )
(declare-fun Y1 () Real )
(declare-fun X2 () Real )
(declare-fun Y2 () Real )
(declare-fun X3 () Real )
(declare-fun Y3 () Real )
(declare-fun X4 () Real )
(declare-fun Y4 () Real )
(declare-fun X5 () Real )
(declare-fun Y5 () Real )
(declare-fun X6 () Real )
(declare-fun Y6 () Real )
(declare-fun X7 () Real )
(declare-fun Y7 () Real )
(declare-fun X8 () Real )
(declare-fun Y8 () Real )
(declare-fun X9 () Real )
(declare-fun Y9 () Real )
(declare-fun X10 () Real )
(declare-fun Y10 () Real )
(declare-fun X11 () Real )
(declare-fun Y11 () Real )
(declare-fun X12 () Real )
(declare-fun Y12 () Real )
(declare-fun X13 () Real )
(declare-fun Y13 () Real )
(declare-fun X14 () Real )
(declare-fun Y14 () Real )
(declare-fun X15 () Real )
(declare-fun Y15 () Real )
(declare-fun X16 () Real )
(declare-fun Y16 () Real )
(declare-fun X17 () Real )
(declare-fun Y17 () Real )
(declare-fun Z () Real )
(assert ( and  
( or ( <= ( + X0 58 ) X1 )  ( <= ( + X1 98 ) X0 )  ( <= ( + Y0 82 ) Y1 )  ( <= ( + Y1 20 ) Y0 )  )
( or ( <= ( + X0 58 ) X2 )  ( <= ( + X2 55 ) X0 )  ( <= ( + Y0 82 ) Y2 )  ( <= ( + Y2 19 ) Y0 )  )
( or ( <= ( + X0 58 ) X3 )  ( <= ( + X3 29 ) X0 )  ( <= ( + Y0 82 ) Y3 )  ( <= ( + Y3 42 ) Y0 )  )
( or ( <= ( + X0 58 ) X4 )  ( <= ( + X4 12 ) X0 )  ( <= ( + Y0 82 ) Y4 )  ( <= ( + Y4 83 ) Y0 )  )
( or ( <= ( + X0 58 ) X5 )  ( <= ( + X5 24 ) X0 )  ( <= ( + Y0 82 ) Y5 )  ( <= ( + Y5 72 ) Y0 )  )
( or ( <= ( + X0 58 ) X6 )  ( <= ( + X6 51 ) X0 )  ( <= ( + Y0 82 ) Y6 )  ( <= ( + Y6 29 ) Y0 )  )
( or ( <= ( + X0 58 ) X7 )  ( <= ( + X7 71 ) X0 )  ( <= ( + Y0 82 ) Y7 )  ( <= ( + Y7 46 ) Y0 )  )
( or ( <= ( + X0 58 ) X8 )  ( <= ( + X8 44 ) X0 )  ( <= ( + Y0 82 ) Y8 )  ( <= ( + Y8 5 ) Y0 )  )
( or ( <= ( + X0 58 ) X9 )  ( <= ( + X9 70 ) X0 )  ( <= ( + Y0 82 ) Y9 )  ( <= ( + Y9 87 ) Y0 )  )
( or ( <= ( + X0 58 ) X10 )  ( <= ( + X10 76 ) X0 )  ( <= ( + Y0 82 ) Y10 )  ( <= ( + Y10 92 ) Y0 )  )
( or ( <= ( + X0 58 ) X11 )  ( <= ( + X11 14 ) X0 )  ( <= ( + Y0 82 ) Y11 )  ( <= ( + Y11 82 ) Y0 )  )
( or ( <= ( + X0 58 ) X12 )  ( <= ( + X12 70 ) X0 )  ( <= ( + Y0 82 ) Y12 )  ( <= ( + Y12 74 ) Y0 )  )
( or ( <= ( + X0 58 ) X13 )  ( <= ( + X13 19 ) X0 )  ( <= ( + Y0 82 ) Y13 )  ( <= ( + Y13 49 ) Y0 )  )
( or ( <= ( + X0 58 ) X14 )  ( <= ( + X14 15 ) X0 )  ( <= ( + Y0 82 ) Y14 )  ( <= ( + Y14 31 ) Y0 )  )
( or ( <= ( + X0 58 ) X15 )  ( <= ( + X15 5 ) X0 )  ( <= ( + Y0 82 ) Y15 )  ( <= ( + Y15 28 ) Y0 )  )
( or ( <= ( + X0 58 ) X16 )  ( <= ( + X16 13 ) X0 )  ( <= ( + Y0 82 ) Y16 )  ( <= ( + Y16 78 ) Y0 )  )
( or ( <= ( + X0 58 ) X17 )  ( <= ( + X17 83 ) X0 )  ( <= ( + Y0 82 ) Y17 )  ( <= ( + Y17 94 ) Y0 )  )
( or ( <= ( + X1 98 ) X2 )  ( <= ( + X2 55 ) X1 )  ( <= ( + Y1 20 ) Y2 )  ( <= ( + Y2 19 ) Y1 )  )
( or ( <= ( + X1 98 ) X3 )  ( <= ( + X3 29 ) X1 )  ( <= ( + Y1 20 ) Y3 )  ( <= ( + Y3 42 ) Y1 )  )
( or ( <= ( + X1 98 ) X4 )  ( <= ( + X4 12 ) X1 )  ( <= ( + Y1 20 ) Y4 )  ( <= ( + Y4 83 ) Y1 )  )
( or ( <= ( + X1 98 ) X5 )  ( <= ( + X5 24 ) X1 )  ( <= ( + Y1 20 ) Y5 )  ( <= ( + Y5 72 ) Y1 )  )
( or ( <= ( + X1 98 ) X6 )  ( <= ( + X6 51 ) X1 )  ( <= ( + Y1 20 ) Y6 )  ( <= ( + Y6 29 ) Y1 )  )
( or ( <= ( + X1 98 ) X7 )  ( <= ( + X7 71 ) X1 )  ( <= ( + Y1 20 ) Y7 )  ( <= ( + Y7 46 ) Y1 )  )
( or ( <= ( + X1 98 ) X8 )  ( <= ( + X8 44 ) X1 )  ( <= ( + Y1 20 ) Y8 )  ( <= ( + Y8 5 ) Y1 )  )
( or ( <= ( + X1 98 ) X9 )  ( <= ( + X9 70 ) X1 )  ( <= ( + Y1 20 ) Y9 )  ( <= ( + Y9 87 ) Y1 )  )
( or ( <= ( + X1 98 ) X10 )  ( <= ( + X10 76 ) X1 )  ( <= ( + Y1 20 ) Y10 )  ( <= ( + Y10 92 ) Y1 )  )
( or ( <= ( + X1 98 ) X11 )  ( <= ( + X11 14 ) X1 )  ( <= ( + Y1 20 ) Y11 )  ( <= ( + Y11 82 ) Y1 )  )
( or ( <= ( + X1 98 ) X12 )  ( <= ( + X12 70 ) X1 )  ( <= ( + Y1 20 ) Y12 )  ( <= ( + Y12 74 ) Y1 )  )
( or ( <= ( + X1 98 ) X13 )  ( <= ( + X13 19 ) X1 )  ( <= ( + Y1 20 ) Y13 )  ( <= ( + Y13 49 ) Y1 )  )
( or ( <= ( + X1 98 ) X14 )  ( <= ( + X14 15 ) X1 )  ( <= ( + Y1 20 ) Y14 )  ( <= ( + Y14 31 ) Y1 )  )
( or ( <= ( + X1 98 ) X15 )  ( <= ( + X15 5 ) X1 )  ( <= ( + Y1 20 ) Y15 )  ( <= ( + Y15 28 ) Y1 )  )
( or ( <= ( + X1 98 ) X16 )  ( <= ( + X16 13 ) X1 )  ( <= ( + Y1 20 ) Y16 )  ( <= ( + Y16 78 ) Y1 )  )
( or ( <= ( + X1 98 ) X17 )  ( <= ( + X17 83 ) X1 )  ( <= ( + Y1 20 ) Y17 )  ( <= ( + Y17 94 ) Y1 )  )
( or ( <= ( + X2 55 ) X3 )  ( <= ( + X3 29 ) X2 )  ( <= ( + Y2 19 ) Y3 )  ( <= ( + Y3 42 ) Y2 )  )
( or ( <= ( + X2 55 ) X4 )  ( <= ( + X4 12 ) X2 )  ( <= ( + Y2 19 ) Y4 )  ( <= ( + Y4 83 ) Y2 )  )
( or ( <= ( + X2 55 ) X5 )  ( <= ( + X5 24 ) X2 )  ( <= ( + Y2 19 ) Y5 )  ( <= ( + Y5 72 ) Y2 )  )
( or ( <= ( + X2 55 ) X6 )  ( <= ( + X6 51 ) X2 )  ( <= ( + Y2 19 ) Y6 )  ( <= ( + Y6 29 ) Y2 )  )
( or ( <= ( + X2 55 ) X7 )  ( <= ( + X7 71 ) X2 )  ( <= ( + Y2 19 ) Y7 )  ( <= ( + Y7 46 ) Y2 )  )
( or ( <= ( + X2 55 ) X8 )  ( <= ( + X8 44 ) X2 )  ( <= ( + Y2 19 ) Y8 )  ( <= ( + Y8 5 ) Y2 )  )
( or ( <= ( + X2 55 ) X9 )  ( <= ( + X9 70 ) X2 )  ( <= ( + Y2 19 ) Y9 )  ( <= ( + Y9 87 ) Y2 )  )
( or ( <= ( + X2 55 ) X10 )  ( <= ( + X10 76 ) X2 )  ( <= ( + Y2 19 ) Y10 )  ( <= ( + Y10 92 ) Y2 )  )
( or ( <= ( + X2 55 ) X11 )  ( <= ( + X11 14 ) X2 )  ( <= ( + Y2 19 ) Y11 )  ( <= ( + Y11 82 ) Y2 )  )
( or ( <= ( + X2 55 ) X12 )  ( <= ( + X12 70 ) X2 )  ( <= ( + Y2 19 ) Y12 )  ( <= ( + Y12 74 ) Y2 )  )
( or ( <= ( + X2 55 ) X13 )  ( <= ( + X13 19 ) X2 )  ( <= ( + Y2 19 ) Y13 )  ( <= ( + Y13 49 ) Y2 )  )
( or ( <= ( + X2 55 ) X14 )  ( <= ( + X14 15 ) X2 )  ( <= ( + Y2 19 ) Y14 )  ( <= ( + Y14 31 ) Y2 )  )
( or ( <= ( + X2 55 ) X15 )  ( <= ( + X15 5 ) X2 )  ( <= ( + Y2 19 ) Y15 )  ( <= ( + Y15 28 ) Y2 )  )
( or ( <= ( + X2 55 ) X16 )  ( <= ( + X16 13 ) X2 )  ( <= ( + Y2 19 ) Y16 )  ( <= ( + Y16 78 ) Y2 )  )
( or ( <= ( + X2 55 ) X17 )  ( <= ( + X17 83 ) X2 )  ( <= ( + Y2 19 ) Y17 )  ( <= ( + Y17 94 ) Y2 )  )
( or ( <= ( + X3 29 ) X4 )  ( <= ( + X4 12 ) X3 )  ( <= ( + Y3 42 ) Y4 )  ( <= ( + Y4 83 ) Y3 )  )
( or ( <= ( + X3 29 ) X5 )  ( <= ( + X5 24 ) X3 )  ( <= ( + Y3 42 ) Y5 )  ( <= ( + Y5 72 ) Y3 )  )
( or ( <= ( + X3 29 ) X6 )  ( <= ( + X6 51 ) X3 )  ( <= ( + Y3 42 ) Y6 )  ( <= ( + Y6 29 ) Y3 )  )
( or ( <= ( + X3 29 ) X7 )  ( <= ( + X7 71 ) X3 )  ( <= ( + Y3 42 ) Y7 )  ( <= ( + Y7 46 ) Y3 )  )
( or ( <= ( + X3 29 ) X8 )  ( <= ( + X8 44 ) X3 )  ( <= ( + Y3 42 ) Y8 )  ( <= ( + Y8 5 ) Y3 )  )
( or ( <= ( + X3 29 ) X9 )  ( <= ( + X9 70 ) X3 )  ( <= ( + Y3 42 ) Y9 )  ( <= ( + Y9 87 ) Y3 )  )
( or ( <= ( + X3 29 ) X10 )  ( <= ( + X10 76 ) X3 )  ( <= ( + Y3 42 ) Y10 )  ( <= ( + Y10 92 ) Y3 )  )
( or ( <= ( + X3 29 ) X11 )  ( <= ( + X11 14 ) X3 )  ( <= ( + Y3 42 ) Y11 )  ( <= ( + Y11 82 ) Y3 )  )
( or ( <= ( + X3 29 ) X12 )  ( <= ( + X12 70 ) X3 )  ( <= ( + Y3 42 ) Y12 )  ( <= ( + Y12 74 ) Y3 )  )
( or ( <= ( + X3 29 ) X13 )  ( <= ( + X13 19 ) X3 )  ( <= ( + Y3 42 ) Y13 )  ( <= ( + Y13 49 ) Y3 )  )
( or ( <= ( + X3 29 ) X14 )  ( <= ( + X14 15 ) X3 )  ( <= ( + Y3 42 ) Y14 )  ( <= ( + Y14 31 ) Y3 )  )
( or ( <= ( + X3 29 ) X15 )  ( <= ( + X15 5 ) X3 )  ( <= ( + Y3 42 ) Y15 )  ( <= ( + Y15 28 ) Y3 )  )
( or ( <= ( + X3 29 ) X16 )  ( <= ( + X16 13 ) X3 )  ( <= ( + Y3 42 ) Y16 )  ( <= ( + Y16 78 ) Y3 )  )
( or ( <= ( + X3 29 ) X17 )  ( <= ( + X17 83 ) X3 )  ( <= ( + Y3 42 ) Y17 )  ( <= ( + Y17 94 ) Y3 )  )
( or ( <= ( + X4 12 ) X5 )  ( <= ( + X5 24 ) X4 )  ( <= ( + Y4 83 ) Y5 )  ( <= ( + Y5 72 ) Y4 )  )
( or ( <= ( + X4 12 ) X6 )  ( <= ( + X6 51 ) X4 )  ( <= ( + Y4 83 ) Y6 )  ( <= ( + Y6 29 ) Y4 )  )
( or ( <= ( + X4 12 ) X7 )  ( <= ( + X7 71 ) X4 )  ( <= ( + Y4 83 ) Y7 )  ( <= ( + Y7 46 ) Y4 )  )
( or ( <= ( + X4 12 ) X8 )  ( <= ( + X8 44 ) X4 )  ( <= ( + Y4 83 ) Y8 )  ( <= ( + Y8 5 ) Y4 )  )
( or ( <= ( + X4 12 ) X9 )  ( <= ( + X9 70 ) X4 )  ( <= ( + Y4 83 ) Y9 )  ( <= ( + Y9 87 ) Y4 )  )
( or ( <= ( + X4 12 ) X10 )  ( <= ( + X10 76 ) X4 )  ( <= ( + Y4 83 ) Y10 )  ( <= ( + Y10 92 ) Y4 )  )
( or ( <= ( + X4 12 ) X11 )  ( <= ( + X11 14 ) X4 )  ( <= ( + Y4 83 ) Y11 )  ( <= ( + Y11 82 ) Y4 )  )
( or ( <= ( + X4 12 ) X12 )  ( <= ( + X12 70 ) X4 )  ( <= ( + Y4 83 ) Y12 )  ( <= ( + Y12 74 ) Y4 )  )
( or ( <= ( + X4 12 ) X13 )  ( <= ( + X13 19 ) X4 )  ( <= ( + Y4 83 ) Y13 )  ( <= ( + Y13 49 ) Y4 )  )
( or ( <= ( + X4 12 ) X14 )  ( <= ( + X14 15 ) X4 )  ( <= ( + Y4 83 ) Y14 )  ( <= ( + Y14 31 ) Y4 )  )
( or ( <= ( + X4 12 ) X15 )  ( <= ( + X15 5 ) X4 )  ( <= ( + Y4 83 ) Y15 )  ( <= ( + Y15 28 ) Y4 )  )
( or ( <= ( + X4 12 ) X16 )  ( <= ( + X16 13 ) X4 )  ( <= ( + Y4 83 ) Y16 )  ( <= ( + Y16 78 ) Y4 )  )
( or ( <= ( + X4 12 ) X17 )  ( <= ( + X17 83 ) X4 )  ( <= ( + Y4 83 ) Y17 )  ( <= ( + Y17 94 ) Y4 )  )
( or ( <= ( + X5 24 ) X6 )  ( <= ( + X6 51 ) X5 )  ( <= ( + Y5 72 ) Y6 )  ( <= ( + Y6 29 ) Y5 )  )
( or ( <= ( + X5 24 ) X7 )  ( <= ( + X7 71 ) X5 )  ( <= ( + Y5 72 ) Y7 )  ( <= ( + Y7 46 ) Y5 )  )
( or ( <= ( + X5 24 ) X8 )  ( <= ( + X8 44 ) X5 )  ( <= ( + Y5 72 ) Y8 )  ( <= ( + Y8 5 ) Y5 )  )
( or ( <= ( + X5 24 ) X9 )  ( <= ( + X9 70 ) X5 )  ( <= ( + Y5 72 ) Y9 )  ( <= ( + Y9 87 ) Y5 )  )
( or ( <= ( + X5 24 ) X10 )  ( <= ( + X10 76 ) X5 )  ( <= ( + Y5 72 ) Y10 )  ( <= ( + Y10 92 ) Y5 )  )
( or ( <= ( + X5 24 ) X11 )  ( <= ( + X11 14 ) X5 )  ( <= ( + Y5 72 ) Y11 )  ( <= ( + Y11 82 ) Y5 )  )
( or ( <= ( + X5 24 ) X12 )  ( <= ( + X12 70 ) X5 )  ( <= ( + Y5 72 ) Y12 )  ( <= ( + Y12 74 ) Y5 )  )
( or ( <= ( + X5 24 ) X13 )  ( <= ( + X13 19 ) X5 )  ( <= ( + Y5 72 ) Y13 )  ( <= ( + Y13 49 ) Y5 )  )
( or ( <= ( + X5 24 ) X14 )  ( <= ( + X14 15 ) X5 )  ( <= ( + Y5 72 ) Y14 )  ( <= ( + Y14 31 ) Y5 )  )
( or ( <= ( + X5 24 ) X15 )  ( <= ( + X15 5 ) X5 )  ( <= ( + Y5 72 ) Y15 )  ( <= ( + Y15 28 ) Y5 )  )
( or ( <= ( + X5 24 ) X16 )  ( <= ( + X16 13 ) X5 )  ( <= ( + Y5 72 ) Y16 )  ( <= ( + Y16 78 ) Y5 )  )
( or ( <= ( + X5 24 ) X17 )  ( <= ( + X17 83 ) X5 )  ( <= ( + Y5 72 ) Y17 )  ( <= ( + Y17 94 ) Y5 )  )
( or ( <= ( + X6 51 ) X7 )  ( <= ( + X7 71 ) X6 )  ( <= ( + Y6 29 ) Y7 )  ( <= ( + Y7 46 ) Y6 )  )
( or ( <= ( + X6 51 ) X8 )  ( <= ( + X8 44 ) X6 )  ( <= ( + Y6 29 ) Y8 )  ( <= ( + Y8 5 ) Y6 )  )
( or ( <= ( + X6 51 ) X9 )  ( <= ( + X9 70 ) X6 )  ( <= ( + Y6 29 ) Y9 )  ( <= ( + Y9 87 ) Y6 )  )
( or ( <= ( + X6 51 ) X10 )  ( <= ( + X10 76 ) X6 )  ( <= ( + Y6 29 ) Y10 )  ( <= ( + Y10 92 ) Y6 )  )
( or ( <= ( + X6 51 ) X11 )  ( <= ( + X11 14 ) X6 )  ( <= ( + Y6 29 ) Y11 )  ( <= ( + Y11 82 ) Y6 )  )
( or ( <= ( + X6 51 ) X12 )  ( <= ( + X12 70 ) X6 )  ( <= ( + Y6 29 ) Y12 )  ( <= ( + Y12 74 ) Y6 )  )
( or ( <= ( + X6 51 ) X13 )  ( <= ( + X13 19 ) X6 )  ( <= ( + Y6 29 ) Y13 )  ( <= ( + Y13 49 ) Y6 )  )
( or ( <= ( + X6 51 ) X14 )  ( <= ( + X14 15 ) X6 )  ( <= ( + Y6 29 ) Y14 )  ( <= ( + Y14 31 ) Y6 )  )
( or ( <= ( + X6 51 ) X15 )  ( <= ( + X15 5 ) X6 )  ( <= ( + Y6 29 ) Y15 )  ( <= ( + Y15 28 ) Y6 )  )
( or ( <= ( + X6 51 ) X16 )  ( <= ( + X16 13 ) X6 )  ( <= ( + Y6 29 ) Y16 )  ( <= ( + Y16 78 ) Y6 )  )
( or ( <= ( + X6 51 ) X17 )  ( <= ( + X17 83 ) X6 )  ( <= ( + Y6 29 ) Y17 )  ( <= ( + Y17 94 ) Y6 )  )
( or ( <= ( + X7 71 ) X8 )  ( <= ( + X8 44 ) X7 )  ( <= ( + Y7 46 ) Y8 )  ( <= ( + Y8 5 ) Y7 )  )
( or ( <= ( + X7 71 ) X9 )  ( <= ( + X9 70 ) X7 )  ( <= ( + Y7 46 ) Y9 )  ( <= ( + Y9 87 ) Y7 )  )
( or ( <= ( + X7 71 ) X10 )  ( <= ( + X10 76 ) X7 )  ( <= ( + Y7 46 ) Y10 )  ( <= ( + Y10 92 ) Y7 )  )
( or ( <= ( + X7 71 ) X11 )  ( <= ( + X11 14 ) X7 )  ( <= ( + Y7 46 ) Y11 )  ( <= ( + Y11 82 ) Y7 )  )
( or ( <= ( + X7 71 ) X12 )  ( <= ( + X12 70 ) X7 )  ( <= ( + Y7 46 ) Y12 )  ( <= ( + Y12 74 ) Y7 )  )
( or ( <= ( + X7 71 ) X13 )  ( <= ( + X13 19 ) X7 )  ( <= ( + Y7 46 ) Y13 )  ( <= ( + Y13 49 ) Y7 )  )
( or ( <= ( + X7 71 ) X14 )  ( <= ( + X14 15 ) X7 )  ( <= ( + Y7 46 ) Y14 )  ( <= ( + Y14 31 ) Y7 )  )
( or ( <= ( + X7 71 ) X15 )  ( <= ( + X15 5 ) X7 )  ( <= ( + Y7 46 ) Y15 )  ( <= ( + Y15 28 ) Y7 )  )
( or ( <= ( + X7 71 ) X16 )  ( <= ( + X16 13 ) X7 )  ( <= ( + Y7 46 ) Y16 )  ( <= ( + Y16 78 ) Y7 )  )
( or ( <= ( + X7 71 ) X17 )  ( <= ( + X17 83 ) X7 )  ( <= ( + Y7 46 ) Y17 )  ( <= ( + Y17 94 ) Y7 )  )
( or ( <= ( + X8 44 ) X9 )  ( <= ( + X9 70 ) X8 )  ( <= ( + Y8 5 ) Y9 )  ( <= ( + Y9 87 ) Y8 )  )
( or ( <= ( + X8 44 ) X10 )  ( <= ( + X10 76 ) X8 )  ( <= ( + Y8 5 ) Y10 )  ( <= ( + Y10 92 ) Y8 )  )
( or ( <= ( + X8 44 ) X11 )  ( <= ( + X11 14 ) X8 )  ( <= ( + Y8 5 ) Y11 )  ( <= ( + Y11 82 ) Y8 )  )
( or ( <= ( + X8 44 ) X12 )  ( <= ( + X12 70 ) X8 )  ( <= ( + Y8 5 ) Y12 )  ( <= ( + Y12 74 ) Y8 )  )
( or ( <= ( + X8 44 ) X13 )  ( <= ( + X13 19 ) X8 )  ( <= ( + Y8 5 ) Y13 )  ( <= ( + Y13 49 ) Y8 )  )
( or ( <= ( + X8 44 ) X14 )  ( <= ( + X14 15 ) X8 )  ( <= ( + Y8 5 ) Y14 )  ( <= ( + Y14 31 ) Y8 )  )
( or ( <= ( + X8 44 ) X15 )  ( <= ( + X15 5 ) X8 )  ( <= ( + Y8 5 ) Y15 )  ( <= ( + Y15 28 ) Y8 )  )
( or ( <= ( + X8 44 ) X16 )  ( <= ( + X16 13 ) X8 )  ( <= ( + Y8 5 ) Y16 )  ( <= ( + Y16 78 ) Y8 )  )
( or ( <= ( + X8 44 ) X17 )  ( <= ( + X17 83 ) X8 )  ( <= ( + Y8 5 ) Y17 )  ( <= ( + Y17 94 ) Y8 )  )
( or ( <= ( + X9 70 ) X10 )  ( <= ( + X10 76 ) X9 )  ( <= ( + Y9 87 ) Y10 )  ( <= ( + Y10 92 ) Y9 )  )
( or ( <= ( + X9 70 ) X11 )  ( <= ( + X11 14 ) X9 )  ( <= ( + Y9 87 ) Y11 )  ( <= ( + Y11 82 ) Y9 )  )
( or ( <= ( + X9 70 ) X12 )  ( <= ( + X12 70 ) X9 )  ( <= ( + Y9 87 ) Y12 )  ( <= ( + Y12 74 ) Y9 )  )
( or ( <= ( + X9 70 ) X13 )  ( <= ( + X13 19 ) X9 )  ( <= ( + Y9 87 ) Y13 )  ( <= ( + Y13 49 ) Y9 )  )
( or ( <= ( + X9 70 ) X14 )  ( <= ( + X14 15 ) X9 )  ( <= ( + Y9 87 ) Y14 )  ( <= ( + Y14 31 ) Y9 )  )
( or ( <= ( + X9 70 ) X15 )  ( <= ( + X15 5 ) X9 )  ( <= ( + Y9 87 ) Y15 )  ( <= ( + Y15 28 ) Y9 )  )
( or ( <= ( + X9 70 ) X16 )  ( <= ( + X16 13 ) X9 )  ( <= ( + Y9 87 ) Y16 )  ( <= ( + Y16 78 ) Y9 )  )
( or ( <= ( + X9 70 ) X17 )  ( <= ( + X17 83 ) X9 )  ( <= ( + Y9 87 ) Y17 )  ( <= ( + Y17 94 ) Y9 )  )
( or ( <= ( + X10 76 ) X11 )  ( <= ( + X11 14 ) X10 )  ( <= ( + Y10 92 ) Y11 )  ( <= ( + Y11 82 ) Y10 )  )
( or ( <= ( + X10 76 ) X12 )  ( <= ( + X12 70 ) X10 )  ( <= ( + Y10 92 ) Y12 )  ( <= ( + Y12 74 ) Y10 )  )
( or ( <= ( + X10 76 ) X13 )  ( <= ( + X13 19 ) X10 )  ( <= ( + Y10 92 ) Y13 )  ( <= ( + Y13 49 ) Y10 )  )
( or ( <= ( + X10 76 ) X14 )  ( <= ( + X14 15 ) X10 )  ( <= ( + Y10 92 ) Y14 )  ( <= ( + Y14 31 ) Y10 )  )
( or ( <= ( + X10 76 ) X15 )  ( <= ( + X15 5 ) X10 )  ( <= ( + Y10 92 ) Y15 )  ( <= ( + Y15 28 ) Y10 )  )
( or ( <= ( + X10 76 ) X16 )  ( <= ( + X16 13 ) X10 )  ( <= ( + Y10 92 ) Y16 )  ( <= ( + Y16 78 ) Y10 )  )
( or ( <= ( + X10 76 ) X17 )  ( <= ( + X17 83 ) X10 )  ( <= ( + Y10 92 ) Y17 )  ( <= ( + Y17 94 ) Y10 )  )
( or ( <= ( + X11 14 ) X12 )  ( <= ( + X12 70 ) X11 )  ( <= ( + Y11 82 ) Y12 )  ( <= ( + Y12 74 ) Y11 )  )
( or ( <= ( + X11 14 ) X13 )  ( <= ( + X13 19 ) X11 )  ( <= ( + Y11 82 ) Y13 )  ( <= ( + Y13 49 ) Y11 )  )
( or ( <= ( + X11 14 ) X14 )  ( <= ( + X14 15 ) X11 )  ( <= ( + Y11 82 ) Y14 )  ( <= ( + Y14 31 ) Y11 )  )
( or ( <= ( + X11 14 ) X15 )  ( <= ( + X15 5 ) X11 )  ( <= ( + Y11 82 ) Y15 )  ( <= ( + Y15 28 ) Y11 )  )
( or ( <= ( + X11 14 ) X16 )  ( <= ( + X16 13 ) X11 )  ( <= ( + Y11 82 ) Y16 )  ( <= ( + Y16 78 ) Y11 )  )
( or ( <= ( + X11 14 ) X17 )  ( <= ( + X17 83 ) X11 )  ( <= ( + Y11 82 ) Y17 )  ( <= ( + Y17 94 ) Y11 )  )
( or ( <= ( + X12 70 ) X13 )  ( <= ( + X13 19 ) X12 )  ( <= ( + Y12 74 ) Y13 )  ( <= ( + Y13 49 ) Y12 )  )
( or ( <= ( + X12 70 ) X14 )  ( <= ( + X14 15 ) X12 )  ( <= ( + Y12 74 ) Y14 )  ( <= ( + Y14 31 ) Y12 )  )
( or ( <= ( + X12 70 ) X15 )  ( <= ( + X15 5 ) X12 )  ( <= ( + Y12 74 ) Y15 )  ( <= ( + Y15 28 ) Y12 )  )
( or ( <= ( + X12 70 ) X16 )  ( <= ( + X16 13 ) X12 )  ( <= ( + Y12 74 ) Y16 )  ( <= ( + Y16 78 ) Y12 )  )
( or ( <= ( + X12 70 ) X17 )  ( <= ( + X17 83 ) X12 )  ( <= ( + Y12 74 ) Y17 )  ( <= ( + Y17 94 ) Y12 )  )
( or ( <= ( + X13 19 ) X14 )  ( <= ( + X14 15 ) X13 )  ( <= ( + Y13 49 ) Y14 )  ( <= ( + Y14 31 ) Y13 )  )
( or ( <= ( + X13 19 ) X15 )  ( <= ( + X15 5 ) X13 )  ( <= ( + Y13 49 ) Y15 )  ( <= ( + Y15 28 ) Y13 )  )
( or ( <= ( + X13 19 ) X16 )  ( <= ( + X16 13 ) X13 )  ( <= ( + Y13 49 ) Y16 )  ( <= ( + Y16 78 ) Y13 )  )
( or ( <= ( + X13 19 ) X17 )  ( <= ( + X17 83 ) X13 )  ( <= ( + Y13 49 ) Y17 )  ( <= ( + Y17 94 ) Y13 )  )
( or ( <= ( + X14 15 ) X15 )  ( <= ( + X15 5 ) X14 )  ( <= ( + Y14 31 ) Y15 )  ( <= ( + Y15 28 ) Y14 )  )
( or ( <= ( + X14 15 ) X16 )  ( <= ( + X16 13 ) X14 )  ( <= ( + Y14 31 ) Y16 )  ( <= ( + Y16 78 ) Y14 )  )
( or ( <= ( + X14 15 ) X17 )  ( <= ( + X17 83 ) X14 )  ( <= ( + Y14 31 ) Y17 )  ( <= ( + Y17 94 ) Y14 )  )
( or ( <= ( + X15 5 ) X16 )  ( <= ( + X16 13 ) X15 )  ( <= ( + Y15 28 ) Y16 )  ( <= ( + Y16 78 ) Y15 )  )
( or ( <= ( + X15 5 ) X17 )  ( <= ( + X17 83 ) X15 )  ( <= ( + Y15 28 ) Y17 )  ( <= ( + Y17 94 ) Y15 )  )
( or ( <= ( + X16 13 ) X17 )  ( <= ( + X17 83 ) X16 )  ( <= ( + Y16 78 ) Y17 )  ( <= ( + Y17 94 ) Y16 )  )
( >= X0 0)
( <= ( + X0 58) Z)
( >= Y0 0)
( <= ( + Y0 82 ) 212)
( >= X1 0)
( <= ( + X1 98) Z)
( >= Y1 0)
( <= ( + Y1 20 ) 212)
( >= X2 0)
( <= ( + X2 55) Z)
( >= Y2 0)
( <= ( + Y2 19 ) 212)
( >= X3 0)
( <= ( + X3 29) Z)
( >= Y3 0)
( <= ( + Y3 42 ) 212)
( >= X4 0)
( <= ( + X4 12) Z)
( >= Y4 0)
( <= ( + Y4 83 ) 212)
( >= X5 0)
( <= ( + X5 24) Z)
( >= Y5 0)
( <= ( + Y5 72 ) 212)
( >= X6 0)
( <= ( + X6 51) Z)
( >= Y6 0)
( <= ( + Y6 29 ) 212)
( >= X7 0)
( <= ( + X7 71) Z)
( >= Y7 0)
( <= ( + Y7 46 ) 212)
( >= X8 0)
( <= ( + X8 44) Z)
( >= Y8 0)
( <= ( + Y8 5 ) 212)
( >= X9 0)
( <= ( + X9 70) Z)
( >= Y9 0)
( <= ( + Y9 87 ) 212)
( >= X10 0)
( <= ( + X10 76) Z)
( >= Y10 0)
( <= ( + Y10 92 ) 212)
( >= X11 0)
( <= ( + X11 14) Z)
( >= Y11 0)
( <= ( + Y11 82 ) 212)
( >= X12 0)
( <= ( + X12 70) Z)
( >= Y12 0)
( <= ( + Y12 74 ) 212)
( >= X13 0)
( <= ( + X13 19) Z)
( >= Y13 0)
( <= ( + Y13 49 ) 212)
( >= X14 0)
( <= ( + X14 15) Z)
( >= Y14 0)
( <= ( + Y14 31 ) 212)
( >= X15 0)
( <= ( + X15 5) Z)
( >= Y15 0)
( <= ( + Y15 28 ) 212)
( >= X16 0)
( <= ( + X16 13) Z)
( >= Y16 0)
( <= ( + Y16 78 ) 212)
( >= X17 0)
( <= ( + X17 83) Z)
( >= Y17 0)
( <= ( + Y17 94 ) 212)
) )
(minimize Z)
(check-sat)
